%chk=d-kynurenine_r_o_o_cap_2.chk
# opt hf/6-31g* iop(6/33=2,6/42=6) pop=mk scf=tight test popt

Title Card Required

0 1
 C              
 C                  1            B1
 C                  2            B2    1            A1
 C                  3            B3    2            A2    1            D1    0
 C                  4            B4    3            A3    2            D2    0
 C                  1            B5    2            A4    3            D3    0
 H                  1            B6    6            A5    5            D4    0
 H                  4            B7    3            A6    2            D5    0
 H                  5            B8    4            A7    3            D6    0
 H                  6            B9    1            A8    2            D7    0
 N                  2           B10    1            A9    6            D8    0
 H                 11           B11    2           A10    1            D9    0
 H                 11           B12    2           A11    1           D10    0
 C                  3           B13    2           A12    1           D11    0
 C                 14           B14    3           A13    2           D12    0
 H                 15           B15   14           A14    3           D13    0
 H                 15           B16   14           A15    3           D14    0
 C                 15           B17   14           A16    3           D15    0
 H                 18           B18   15           A17   14           D16    0
 C                 18           B19   15           A18   14           D17    0
 N                 18           B20   15           A19   14           D18    0
 H                 21           B21   18           A20   15           D19    0
 O                 20           B22   18           A21   15           D20    0
 O                 14           B23    3           A22    2           D21    0
 C                 21           B24   18           A23   15           D22    0
 C                 20           B25   18           A24   15           D23    0
 O                 25           B26   21           A25   18           D24    0
 O                 26           B27   20           A26   18           D25    0
 C                 26           B28   20           A27   18           D26    0
 H                 29           B29   26           A28   20           D27    0
 H                 29           B30   26           A29   20           D28    0
 H                 29           B31   26           A30   20           D29    0
 C                 25           B32   21           A31   18           D30    0
 H                 33           B33   25           A32   21           D31    0
 H                 33           B34   25           A33   21           D32    0
 H                 33           B35   25           A34   21           D33    0
 N                 20           B36   18           A35   15           D34    0
 H                 37           B37   20           A36   18           D35    0

   B1             1.41098944
   B2             1.41669320
   B3             1.40707516
   B4             1.37152422
   B5             1.37040960
   B6             1.07326981
   B7             1.07118941
   B8             1.07124034
   B9             1.07336653
   B10            1.35670928
   B11            0.98964040
   B12            0.99170761
   B13            1.46288795
   B14            1.51297101
   B15            1.08482498
   B16            1.08221792
   B17            1.53511946
   B18            1.07468904
   B19            1.51266650
   B20            1.45800374
   B21            0.99381468
   B22            1.20421952
   B23            1.23732780
   B24            1.35849480
   B25            2.47052279
   B26            1.22818663
   B27            1.19812037
   B28            1.49048002
   B29            1.08184045
   B30            1.07785157
   B31            1.08186069
   B32            1.50377249
   B33            1.08279651
   B34            1.08428508
   B35            1.07815491
   B36            1.36482956
   B37            1.00000000
   A1           118.28956353
   A2           118.54452360
   A3           122.44356718
   A4           121.29714002
   A5           120.20867282
   A6           119.13906226
   A7           120.75799206
   A8           119.33523202
   A9           118.77894711
   A10          120.04981763
   A11          120.25203195
   A12          121.23064873
   A13          120.53029801
   A14          109.38203078
   A15          110.69957870
   A16          112.25680716
   A17          110.30131009
   A18          111.69171861
   A19          110.31858335
   A20          117.66408453
   A21          123.20078160
   A22          122.53941138
   A23          122.11797281
   A24          135.15941763
   A25          121.67439506
   A26           97.56571054
   A27          135.32517694
   A28          109.91021287
   A29          109.53852435
   A30          109.60732777
   A31          115.96425659
   A32          111.80545710
   A33          109.71545706
   A34          109.00494488
   A35          112.57489653
   A36          125.92173632
   D1             0.27163319
   D2            -0.22044828
   D3            -0.15218747
   D4           179.90265323
   D5           179.72988001
   D6          -179.94726956
   D7          -179.98506402
   D8           179.77895109
   D9            -1.34704867
   D10         -178.93240800
   D11          179.75024402
   D12         -178.20863788
   D13           65.39915458
   D14          -53.21312398
   D15         -173.07400257
   D16           61.75473648
   D17          -60.00592871
   D18         -178.40955293
   D19           85.49718368
   D20          -57.91201400
   D21            0.98292313
   D22          -91.14342600
   D23          112.01158717
   D24            1.41767034
   D25         -137.40635015
   D26           44.24284374
   D27           55.34691960
   D28          176.33371581
   D29          -62.90389321
   D30         -177.68939621
   D31          -43.09326252
   D32           76.89280138
   D33         -164.26201618
   D34          128.59982190
   D35           90.42982123

 1 2 1.5 6 2.0 7 1.0
 2 3 1.5 11 1.5
 3 4 1.5 14 1.0
 4 5 2.0 8 1.0
 5 6 1.5 9 1.0
 6 10 1.0
 7
 8
 9
 10
 11 12 1.0 13 1.0
 12
 13
 14 15 1.0 24 2.0
 15 16 1.0 17 1.0 18 1.0
 16
 17
 18 19 1.0 20 1.0 21 1.0
 19
 20 23 2.0 37 1.0
 21 22 1.0 25 1.5
 22
 23
 24
 25 27 2.0 33 1.0
 26 28 2.0 29 1.0 37 1.0
 27
 28
 29 30 1.0 31 1.0 32 1.0
 30
 31
 32
 33 34 1.0 35 1.0 36 1.0
 34
 35
 36
 37 38 1.0
 38

