%chk=molecule
#HF/6-31G* SCF=tight Test Pop=MK iop(6/33=2) iop(6/42=6) opt

remark line goes here

0 1
N         -2.39976        1.00582       -0.04173
C         -1.43075        0.04212       -0.16274
O         -1.48837       -0.70100       -1.13032
C         -0.27021       -0.15148        0.82918
C          1.15171        0.10085        0.19840
C          1.23072        1.55001       -0.32602
H          0.48515        1.72120       -1.13130
H          2.23771        1.76330       -0.74598
H          1.03474        2.27935        0.48966
C          2.24408       -0.06096        1.27787
H          2.07055        0.63860        2.12398
H          3.25000        0.14861        0.85405
H          2.25233       -1.09424        1.68443
S          1.55725       -0.98754       -1.22738
H          2.13304       -2.03026       -0.47658
N         -0.38459       -1.42151        1.55831
H         -0.31842        0.61126        1.61615
C         -0.41930       -2.67422        1.01412
H         -0.46013       -1.35617        2.58607
C         -0.53444       -3.86789        1.91466
H          0.33559       -3.89929        2.60347
H         -0.55623       -4.80848        1.32353
H         -1.46948       -3.79799        2.50896
O         -0.37302       -2.84716       -0.19164
H         -3.12097        1.04291       -0.77916
C         -2.53341        1.99161        1.01774
H         -1.78186        1.95650        1.81602
H         -3.52385        1.86397        1.50227
H         -2.49248        3.00685        0.57096



